Route #1: 1 44 5 29 6 51 40 8 21 24 1
Route #2: 1 31 53 33 7 17 11 16 36 30 19 1
Route #3: 1 35 26 48 43 52 47 42 15 3 1
Route #4: 1 50 18 27 46 22 34 10 37 1
Route #5: 1 28 13 38 49 41 9 32 14 1
Route #6: 1 2 45 39 54 1
Route #7: 1 12 23 4 20 25 1
cost 1381
